\ This file was automatically generated by Zimpl
\ set Blanco := {<1,2>,< 4,2>} ;
\ set Negro := {<2,2>,<3,2>};
\ var a real ;
\ var b real ;
\ var c real ;
\ var o real ;
\ subto restricB: forall <i,j> in Blanco: j >= a*(i*i) + b*i + c  + o;
\ subto restricA: forall <i,j> in Negro: j <= a*(i*i) + b*i + c - o;
\ maximize objetivo: o;
\Problem name: caso3.zpl
Maximize
 objetivo:  + o
Subject to
 restricB_1:
  - o - c - b - a >= -2
 restricB_2:
  - o - c -4 b -16 a >= -2
 restricA_1:
  + o - c -2 b -4 a <= -2
 restricA_2:
  + o - c -3 b -9 a <= -2
Bounds
 0 <= a <= +inf
 0 <= b <= +inf
 0 <= c <= +inf
 0 <= o <= +inf
End
